N = 7;
H = 5;
T = 2;

avail = array3d(1..N, 1..H, 1..T, [7, 10, 10, 3, 10, 3, 0, 4, 2, 7, 6, 4, 6, 3, 9, 6, 8, 0, 5, 4, 0, 2, 6, 3, 9, 9, 10, 3, 4, 4, 6, 2, 3, 0, 6, 10, 9, 5, 5, 3, 2, 4, 7, 1, 1, 2, 8, 10, 4, 5, 8, 5, 6, 2, 8, 2, 6, 4, 9, 5, 7, 3, 1, 0, 0, 3, 8, 7, 0, 9]);

r = array2d(1..H, 1..T, [0, 2, 1, 3, 2, 1, 2, 3, 1, 3]);
